3 48 1 10
5 2 4 10 12 16 20 17 11 20 1 8 15 4 5 16 1 13 16 6 2 1 3 3 20 4 17 18 7 14 8 3 5 17 12 1 9 14 3 9 5 16 17 17 4 13 4 18 
1.76 10.26 11.58 15.61 13.15 9.5 8.73 3.82 1.75 2.98 3.89 3.28 4.63 6.99 3.93 15.6 5.52 11.85 5.22 12.15 10.71 2.62 1.46 6.17 2.47 1.68 12.6 9.89 3.15 7.54 8.89 7.21 8.54 3.8 8.45 9.43 14.93 4.48 4.97 8.29 0.75 1.7 1.55 13.55 15.05 13.05 8.28 3.78 
8 8 8 8 8 8 8 8 8 8 8 8 8 8 8 8 8 8 8 8 8 8 8 8 8 8 8 8 8 8 8 8 8 8 8 8 8 8 8 8 8 8 8 8 8 8 8 8 
4.55 13.14 6.48 13.47 3.79 9.58 10.68 3.44 2.1 15.03 9.67 8.22 12.01 9.58 4.31 14.72 15.6 4.1 5.39 10.76 15.8 9.92 5.68 8.35 7.37 14.03 12.32 15.25 11.15 5.88 1.26 13.8 4.93 8.73 6.95 9.46 5.88 10.82 7.92 6.2 1.95 4.86 11.79 14.58 3.6 3.82 8.34 2.02 
1 1 1 1 1 1 1 1 1 1 1 1 1 1 1 1 1 1 1 1 1 1 1 1 1 1 1 1 1 1 1 1 1 1 1 1 1 1 1 1 1 1 1 1 1 1 1 1 
1 1 1 1 1 1 1 1 1 1 1 1 1 1 1 1 1 1 1 1 1 1 1 1 1 1 1 1 1 1 1 1 1 1 1 1 1 1 1 1 1 1 1 1 1 1 1 1 
1 1 1 1 1 1 1 1 1 1 1 1 1 1 1 1 1 1 1 1 1 1 1 1 1 1 1 1 1 1 1 1 1 1 1 1 1 1 1 1 1 1 1 1 1 1 1 1 
0.01 0.01 0.01 0.01 0.01 0.01 0.01 0.01 0.01 0.01 0.01 0.01 0.01 0.01 0.01 0.01 0.01 0.01 0.01 0.01 0.01 0.01 0.01 0.01 0.01 0.01 0.01 0.01 0.01 0.01 0.01 0.01 0.01 0.01 0.01 0.01 0.01 0.01 0.01 0.01 0.01 0.01 0.01 0.01 0.01 0.01 0.01 0.01 
0.02 0.02 0.02 0.02 0.02 0.02 0.02 0.02 0.02 0.02 0.02 0.02 0.02 0.02 0.02 0.02 0.02 0.02 0.02 0.02 0.02 0.02 0.02 0.02 0.02 0.02 0.02 0.02 0.02 0.02 0.02 0.02 0.02 0.02 0.02 0.02 0.02 0.02 0.02 0.02 0.02 0.02 0.02 0.02 0.02 0.02 0.02 0.02 
1 1 1 1 1 1 1 1 1 1 1 1 1 1 1 1 1 1 1 1 1 1 1 1 1 1 1 1 1 1 1 1 1 1 1 1 1 1 1 1 1 1 1 1 1 1 1 1 
